NAME : amz0175.186101_186101.tour
COMMENT : Cost = 186101_186101
COMMENT : Found by LKH-AMZ [Keld Helsgaun] Sun May 11 12:18:04 2025
COMMENT : TW viol.: 0 #: 0
TYPE : TOUR
DIMENSION : 148
TOUR_SECTION
125
16
38
22
133
81
127
51
5
36
91
99
27
12
17
20
26
122
78
86
3
7
10
138
128
70
62
98
2
109
58
132
13
37
23
43
42
139
131
48
80
63
103
46
140
85
94
14
1
137
19
115
88
4
111
136
66
89
34
6
54
75
87
52
97
59
110
45
123
77
55
32
60
71
135
9
25
104
67
15
119
129
106
143
93
146
83
69
40
82
24
56
41
120
95
147
84
113
31
121
68
47
35
100
76
30
90
73
18
126
130
107
74
102
114
96
72
116
28
65
21
49
105
101
44
39
141
117
11
134
8
108
53
118
79
57
61
33
144
64
142
124
50
145
148
92
29
112
-1
EOF
